NAME : local_1
TYPE : ATSP
DIMENSION : 10
EDGE_WEIGHT_TYPE : EXPLICIT
EDGE_WEIGHT_FORMAT : FULL_MATRIX
EDGE_WEIGHT_SECTION
0 247 10000000 10000000 10000000 969 10000000 10000000 10000000 10000000 
0 0 10000000 10000000 10000000 10000000 10000000 10000000 10000000 10000000 
0 10000000 0 444 10000000 10000000 10000000 664 10000000 756 
0 10000000 444 0 10000000 10000000 819 914 10000000 572 
0 10000000 10000000 10000000 0 242 10000000 10000000 10000000 10000000 
0 10000000 10000000 10000000 242 0 10000000 10000000 10000000 10000000 
0 10000000 10000000 819 10000000 10000000 0 10000000 728 10000000 
0 10000000 664 940 10000000 10000000 10000000 0 780 10000000 
0 10000000 10000000 10000000 10000000 10000000 728 780 0 10000000 
0 10000000 10000000 10000000 10000000 10000000 10000000 10000000 10000000 0 
EOF